NAME : ClusterId_1008 
COMMENT : (Gillet and Johnson) 
TYPE : CVRP 
DIMENSION : 13 
EDGE_WEIGHT_TYPE : EUC_2D 
CAPACITY : 500 
NODE_COORD_SECTION 
1008 4258 1837 
649 3826 1536 
211 3623 1786 
279 3959 1657 
5 4347 1375 
475 3788 1885 
459 3940 1752 
336 3883 1872 
968 4367 1583 
797 4488 1570 
768 4028 2240 
128 4177 2177 
573 4390 2061 
DEMAND_SECTION 
1008 515
649 51
211 44
279 49
5 46
475 29
459 29
336 38
968 43
797 49
768 49
128 30
573 31
DEPOT_SECTION 
1008
 -1
EOF